300
[30,31,33,35,36,37,39,40,42,44,45,46,47,50,51,53,54,56,57,58,60,61,63,64,65,67,68,70,71,72,74,76,77,80,81,83,84,86,87,90,91,92,94,96,97,99,101,102,103,104,105,107,108,110,111,112,113,114,115,116,117,118,119,120,122,123,124,125,126,127,129,130,132,133,135,136,137,138,140,142,143,144,146,147,148,150,151,152,153,156,157,158,159,160,161,166,167,168,169,170,171,172,173,174,175,176,178,179,181,182,183,184,185,186,187,188,189,192,193,194,195,196,197,198,199,200,201,203,204,205,206,207,208,209,211,212,213,215,216,217,218,219,220,221,222,223,224,225,226,227,228,229,230,231,232,234,236,237,238,240]
[2,2,3,4,1,1,4,1,2,1,2,1,5,1,2,2,2,1,2,2,3,1,1,1,1,1,2,2,3,1,1,1,3,2,1,2,1,4,1,2,2,1,1,2,1,5,1,2,1,1,1,1,2,3,1,1,3,1,1,1,4,1,1,1,1,1,1,1,3,3,1,1,1,1,3,3,1,2,3,2,1,3,2,3,2,1,1,1,2,2,2,1,5,3,2,2,1,1,1,4,2,1,1,4,1,2,3,2,3,1,2,1,2,2,2,1,2,2,2,1,2,2,2,2,4,2,2,2,1,1,1,2,2,6,2,1,2,3,1,1,3,1,3,2,1,3,5,1,2,2,1,1,2,1,3,2,1,2,2,2]
